--- Job 6_The_Mall_Problem.gms Start 11/17/21 22:22:58 35.1.0 r82a9585 WEX-WEI x86 64bit/MS Windows
--- Applying:
    C:\GAMS\35\gmsprmNT.txt
--- GAMS Parameters defined
    Input "C:\Users\Semih\Desktop\GAMS CALISMA\hasan_gams\6_The_Mall_Problem.gms"
    PageSize 0
    ScrDir "C:\Users\Semih\Desktop\GAMS CALISMA\hasan_gams\225a\"
    SysDir C:\GAMS\35\
    LogOption 3
    ErrMsg 1
    ErrorLog 99
    IDE 1
    LstTitleLeftAligned 1
Licensee: GAMS Community License for Mehmet Semih BabacanG210511|0002AO-GEN
          Yildiz Technical University                                CL1316
          C:\GAMS\35\gamslice.txt
          Mehmet Semih Babacan, l6918040@std.yildiz.edu.tr                 
          Community license for demonstration and instructional purposes only
GAMS 35.1.0   Copyright (C) 1987-2021 GAMS Development. All rights reserved
--- Starting compilation
--- 6_The_Mall_Problem.gms(40) 3 Mb
--- Starting execution: elapsed 0:00:00.011
--- Generating MIP model avm
--- 6_The_Mall_Problem.gms(39) 4 Mb
---   8 rows  19 columns  51 non-zeroes
---   18 discrete-columns
--- Executing CPLEX (Solvelink=2): elapsed 0:00:00.026

IBM ILOG CPLEX   35.1.0 r82a9585 Released Apr 29, 2021 WEI x86 64bit/MS Window

--- *** This solver runs with a community license. No commercial use.
--- GMO memory 0.50 Mb (peak 0.50 Mb)
--- Dictionary memory 0.00 Mb
--- Cplex 20.1.0.1 link memory 0.00 Mb (peak 0.00 Mb)
--- Starting Cplex

Version identifier: 20.1.0.1 | 2021-04-07 | 3a818710c
CPXPARAM_Advance                                 0
CPXPARAM_Simplex_Display                         2
CPXPARAM_Threads                                 1
CPXPARAM_MIP_Display                             4
CPXPARAM_MIP_Tolerances_AbsMIPGap                0
Generic callback                                 0x50
Found incumbent of value 675.000000 after 0.00 sec. (0.00 ticks)
Tried aggregator 2 times.
MIP Presolve eliminated 1 rows and 10 columns.
MIP Presolve added 1 rows and 1 columns.
MIP Presolve modified 24 coefficients.
Aggregator did 4 substitutions.
Reduced MIP has 3 rows, 6 columns, and 10 nonzeros.
Reduced MIP has 5 binaries, 1 generals, 0 SOSs, and 0 indicators.
Presolve time = 0.02 sec. (0.04 ticks)
Probing fixed 0 vars, tightened 1 bounds.
Probing time = 0.00 sec. (0.00 ticks)
Tried aggregator 1 time.
MIP Presolve eliminated 1 rows and 1 columns.
MIP Presolve added 1 rows and 1 columns.
Reduced MIP has 3 rows, 6 columns, and 10 nonzeros.
Reduced MIP has 5 binaries, 1 generals, 0 SOSs, and 0 indicators.
Presolve time = 0.00 sec. (0.01 ticks)
Probing time = 0.00 sec. (0.00 ticks)
Clique table members: 4.
MIP emphasis: balance optimality and feasibility.
MIP search method: dynamic search.
Parallel mode: none, using 1 thread.
Tried aggregator 1 time.
LP Presolve eliminated 1 rows and 2 columns.
Reduced LP has 2 rows, 4 columns, and 6 nonzeros.
Presolve time = 0.00 sec. (0.00 ticks)
Initializing dual steep norms . . .

Iteration      Dual Objective            In Variable           Out Variable
     1  I           51.999999                 x(4,1)       alankisiti artif
     2  I            0.000000                 x(4,2)                 x(4,3)
     3             768.000000                 x(1,2)                 x(4,2)
Initializing dual steep norms . . .
Root relaxation solution time = 0.00 sec. (0.01 ticks)

        Nodes                                         Cuts/
   Node  Left     Objective  IInf  Best Integer    Best Bound    ItCnt     Gap

*     0+    0                          685.0000     1035.0000            51.09%
Found incumbent of value 685.000000 after 0.02 sec. (0.08 ticks)
      0     0      768.0000     1      685.0000      768.0000        3   12.12%
*     0+    0                          760.0000      768.0000             1.05%
Found incumbent of value 760.000000 after 0.03 sec. (0.08 ticks)
*     0+    0                          765.0000      768.0000             0.39%
Found incumbent of value 765.000000 after 0.03 sec. (0.09 ticks)
      0     0        cutoff            765.0000      768.0000        3    0.39%
Elapsed time = 0.03 sec. (0.09 ticks, tree = 0.01 MB, solutions = 3)

Root node processing (before b&c):
  Real time             =    0.03 sec. (0.09 ticks)
Sequential b&c:
  Real time             =    0.00 sec. (0.00 ticks)
                          ------------
Total (root+branch&cut) =    0.03 sec. (0.09 ticks)

--- MIP status (101): integer optimal solution.
--- Cplex Time: 0.03sec (det. 0.09 ticks)

--- Fixing integer variables and solving final LP...

Version identifier: 20.1.0.1 | 2021-04-07 | 3a818710c
CPXPARAM_Advance                                 2
CPXPARAM_Simplex_Display                         2
CPXPARAM_Threads                                 1
CPXPARAM_MIP_Display                             4
CPXPARAM_MIP_Tolerances_AbsMIPGap                0
Tried aggregator 1 time.
LP Presolve eliminated 7 rows and 19 columns.
All rows and columns eliminated.
Presolve time = 0.00 sec. (0.01 ticks)

--- Fixed MIP status (1): optimal.
--- Cplex Time: 0.00sec (det. 0.01 ticks)


Proven optimal solution
MIP Solution:          765.000000    (3 iterations, 0 nodes)
Final Solve:           765.000000    (0 iterations)

Best possible:         765.000000
Absolute gap:            0.000000
Relative gap:            0.000000

--- Reading solution for model avm
--- Executing after solve: elapsed 0:00:00.314
--- 6_The_Mall_Problem.gms(40) 4 Mb
*** Status: Normal completion
--- Job 6_The_Mall_Problem.gms Stop 11/17/21 22:22:58 elapsed 0:00:00.316
